728620
728620
725047
725047
725047
713909
713909
713909
698251
698251
698251
698251
698251
694671
694671
694671
685060
685060
685060
685060
685060
683713
683713
683713
683713
683713
683713
683713
683713
683713
683713
678406
678406
678406
678406
678406
676416
676416
676416
676416
675329
675329
674578
665942
665942
665942
665942
665942
665942
665942
665942
665942
665133
660831
660831
660831
660831
660831
660831
660831
660831
656623
656623
656623
656623
656623
656623
656623
655478
655478
654507
653612
653612
651270
651270
651270
651270
651270
646910
646910
646910
646910
646910
646910
646910
646910
646910
646910
645841
645841
645841
645841
645841
645841
645841
645841
645841
645170
645158
645158
